\ENCODING=ISO-8859-1
\Problem name: TP4

Maximize
 obj1: 8 x_j0 + 6 x_j1 + 9 x_j2 + 6 x_j3 + 4 x_j4 + 5 x_j5 + 3 x_j6 + 4 x_j7
       + 6 x_j9 + 2 x_j10 + 5 x_j11 + 5 x_j12 + 6 x_j13 + 6 x_j14 + 7 x_j15
       + 2 x_j16 + 5 x_j17
Subject To
 capacity_1: 605 x_j0 + 991 x_j1 + 351 x_j2 + 592 x_j3 + 159 x_j4 + 242 x_j5
             + 994 x_j6 + 784 x_j7 + 737 x_j8 + 928 x_j9 + 645 x_j10
             + 291 x_j11 + 444 x_j12 + 290 x_j13 + 195 x_j14 + 526 x_j15
             + 76 x_j16 + 977 x_j17 <= 1000
 capacity_2: 4 x_j0 + 2 x_j1 + 6 x_j2 + 2 x_j3 + x_j4 + 8 x_j5 + 9 x_j6
             + 4 x_j7 + 8 x_j10 + 5 x_j11 + 6 x_j12 + 5 x_j13 + 9 x_j14
             + 7 x_j15 + 6 x_j17 <= 0
Bounds
 0 <= x_j0 <= 1
 0 <= x_j1 <= 1
 0 <= x_j2 <= 1
 0 <= x_j3 <= 1
 0 <= x_j4 <= 1
 0 <= x_j5 <= 1
 0 <= x_j6 <= 1
 0 <= x_j7 <= 1
 0 <= x_j8 <= 1
 0 <= x_j9 <= 1
 0 <= x_j10 <= 1
 0 <= x_j11 <= 1
 0 <= x_j12 <= 1
 0 <= x_j13 <= 1
 0 <= x_j14 <= 1
 0 <= x_j15 <= 1
 0 <= x_j16 <= 1
 0 <= x_j17 <= 1
Binaries
 x_j0  x_j1  x_j2  x_j3  x_j4  x_j5  x_j6  x_j7  x_j8  x_j9  x_j10  x_j11 
 x_j12  x_j13  x_j14  x_j15  x_j16  x_j17 
End
